sifdecoder -A pc64.lnx.gfo -st   A2NNDNSL

 Problem name: A2NNDNSL

 Double precision version will be formed

 The objective function uses 2 linear groups
 
 There are 20004 linear equality constraints
 
 There are 15004 free variables
 There are 10000 variables bounded only from below 
 There are 35008 fixed variables
 
 
 File successfully decoded
 CUTEST: tools (double precision version) compiled successfully
 CUTEst: ipopt (double precision version) compiled successfully

******************************************************************************
This program contains Ipopt, a library for large-scale nonlinear optimization.
 Ipopt is released as open source code under the Eclipse Public License (EPL).
         For more information visit http://projects.coin-or.org/Ipopt
******************************************************************************

This is Ipopt version trunk, running with linear solver ma57.

Number of nonzeros in equality constraint Jacobian...:    78026
Number of nonzeros in inequality constraint Jacobian.:        0
Number of nonzeros in Lagrangian Hessian.............:    30004

Total number of variables............................:    25004
                     variables with only lower bounds:    10000
                variables with lower and upper bounds:        0
                     variables with only upper bounds:        0
Total number of equality constraints.................:    20004
Total number of inequality constraints...............:        0
        inequality constraints with only lower bounds:        0
   inequality constraints with lower and upper bounds:        0
        inequality constraints with only upper bounds:        0

iter    objective    inf_pr   inf_du lg(mu)  ||d||  lg(rg) alpha_du alpha_pr  ls
   0  4.9999900e-01 9.92e+01 6.30e-01  -1.0 0.00e+00    -  0.00e+00 0.00e+00   0
   1  5.0351879e-01 9.90e+01 1.09e+00  -1.0 1.36e+02    -  9.95e-04 1.99e-03h  1
   2  5.8184712e-01 9.89e+01 1.09e+00  -1.0 1.73e+02    -  1.70e-03 1.69e-03f  1
   3  7.0854001e-01 9.87e+01 1.08e+00  -1.0 1.17e+02    -  1.82e-03 1.91e-03f  1
   4  8.6565935e-01 9.85e+01 1.08e+00  -1.0 1.04e+02    -  1.92e-03 2.09e-03f  1
   5  1.0835857e+00 9.82e+01 1.08e+00  -1.0 1.12e+02    -  2.12e-03 2.67e-03f  1
   6  1.3686161e+00 9.79e+01 1.82e+00  -1.0 8.05e+01    -  2.55e-03 3.26e-03f  1
   7  1.7447243e+00 9.75e+01 1.82e+00  -1.0 6.32e+01    -  3.44e-03 4.02e-03f  1
   8  2.3905465e+00 9.69e+01 1.83e+00  -1.0 3.32e+01    -  4.89e-03 6.37e-03f  1
   9  3.0475441e+00 9.63e+01 1.81e+00  -1.0 4.31e+01    -  7.06e-03 6.01e-03f  1
iter    objective    inf_pr   inf_du lg(mu)  ||d||  lg(rg) alpha_du alpha_pr  ls
  10  4.6952816e+00 9.50e+01 2.03e+00  -1.0 2.12e+01    -  8.53e-03 1.37e-02f  1
  11  8.0349535e+00 9.27e+01 3.44e+00  -1.0 4.08e+01    -  1.41e-02 2.38e-02f  1
  12  1.5969632e+01 8.85e+01 3.13e+00  -1.0 4.03e+01    -  3.34e-02 4.60e-02f  1
  13  2.7789476e+02 3.48e+01 5.62e+00  -1.0 3.68e+01    -  2.13e-01 6.07e-01f  1
  14  2.8677595e+02 2.72e+01 2.21e+01  -1.0 2.33e+01    -  6.54e-01 2.17e-01f  1
  15  3.5464403e+02 1.15e+01 2.47e+00  -1.0 1.51e+01    -  4.35e-01 5.77e-01f  1
  16  3.9372650e+02 5.65e+00 2.66e+02  -1.0 2.83e+01    -  9.71e-02 5.09e-01f  1
  17  4.0939855e+02 3.61e+00 2.16e+02  -1.0 3.69e+01    -  8.70e-01 3.61e-01h  1
  18  4.2363438e+02 1.54e+00 1.86e+03  -1.0 2.32e+02    -  1.99e-01 5.72e-01f  1
  19  4.2928928e+02 1.08e+00 1.68e+03  -1.0 1.35e+02    -  6.87e-02 2.98e-01f  1
iter    objective    inf_pr   inf_du lg(mu)  ||d||  lg(rg) alpha_du alpha_pr  ls
  20  4.3921870e+02 8.11e-02 3.74e+02  -1.0 1.05e+02    -  6.28e-01 9.25e-01h  1
  21  4.3939959e+02 7.03e-02 1.75e+04  -1.0 1.00e+02    -  5.77e-01 1.34e-01h  1
  22  4.4048956e+02 3.24e-02 1.37e+05  -1.0 3.73e+01  -4.0 4.42e-02 5.39e-01h  1
  23  4.4068414e+02 1.98e-02 3.76e+05  -1.0 7.04e+00  -3.6 2.36e-02 3.88e-01h  1
  24  4.4076375e+02 1.47e-02 2.76e+05  -1.0 2.63e+00  -3.1 1.17e-01 2.56e-01h  1
  25  4.4083179e+02 1.02e-02 1.94e+05  -1.0 7.16e+00  -3.6 1.11e-01 3.06e-01h  1
  26  4.3983782e+02 5.87e-03 6.96e+06  -1.0 3.82e+01  -4.1 1.28e-02 4.26e-01h  1
  27  4.4029819e+02 5.00e-03 5.91e+06  -1.0 9.15e+01  -4.6 8.69e-03 1.49e-01f  2
  28  4.4069203e+02 2.46e-03 3.00e+06  -1.0 1.53e+01  -4.2 1.00e+00 5.07e-01h  1
Reallocating memory for MA57: lfact (1002008)
  29  4.4078361e+02 1.80e-03 1.92e+06  -1.0 1.11e+02    -  1.89e-01 2.68e-01f  2
iter    objective    inf_pr   inf_du lg(mu)  ||d||  lg(rg) alpha_du alpha_pr  ls
  30  4.4082515e+02 1.49e-03 1.53e+06  -1.0 1.38e+02    -  8.25e-01 1.73e-01f  3
Reallocating memory for MA57: lfact (1075505)
  31  4.4083799e+02 8.22e-04 8.33e+05  -1.0 9.32e+02    -  4.30e-01 4.49e-01f  2
  32  4.4083547e+02 4.11e-04 2.53e+05  -1.0 1.49e+03    -  3.27e-01 5.00e-01f  2
  33  4.4091634e+02 2.06e-04 4.97e+05  -1.0 1.39e+03    -  7.24e-01 5.00e-01f  2
  34  4.4096666e+02 7.36e-11 1.75e+06  -1.0 6.59e+03    -  2.93e-01 1.00e+00f  1
Reallocating memory for MA57: lfact (1881750)
Reallocating memory for MA57: lfact (2691085)
  35  4.4104401e+02 8.15e-09 1.33e-05  -1.0 5.27e-01  -4.6 1.00e+00 1.00e+00f  1
Reallocating memory for MA57: lfact (21731819)
  36  3.4794528e+01 4.67e-09 7.13e-03  -5.7 1.13e+01  -5.1 9.68e-01 9.68e-01f  1
Reallocating memory for MA57: lfact (33569771)
  37  7.6584360e+00 5.03e-09 7.85e-03  -8.6 1.02e+01  -5.6 8.86e-01 8.86e-01f  1
  38  1.8577351e+00 5.07e-09 6.54e-02  -8.6 6.31e+00  -6.1 8.77e-01 8.76e-01f  1
  39  7.3354320e-01 5.08e-09 1.15e-02  -8.6 1.00e+01  -5.6 5.92e-01 5.93e-01f  1
iter    objective    inf_pr   inf_du lg(mu)  ||d||  lg(rg) alpha_du alpha_pr  ls
  40  1.6532491e-01 5.08e-09 2.85e-02  -8.6 5.20e+00  -6.1 7.76e-01 7.76e-01f  1
  41  6.0034639e-03 5.08e-09 3.01e-02  -8.6 1.66e+00  -6.6 8.90e-01 8.90e-01f  1
  42 -2.2273211e-02 5.08e-09 6.56e-03  -8.6 7.42e-01  -7.1 9.13e-01 9.12e-01f  1
  43 -2.6503363e-02 5.08e-09 4.95e-03  -8.6 1.26e+00  -7.5 8.25e-01 8.25e-01f  1
  44 -2.7238181e-02 5.08e-09 1.03e-02  -8.6 2.50e+00  -8.0 6.13e-01 6.13e-01h  1
  45 -2.7315088e-02 5.08e-09 1.29e-02  -8.6 1.12e+01  -8.5 1.23e-01 1.23e-01h  1
  46 -2.7543007e-02 5.08e-09 1.35e-02  -8.6 2.78e+00  -8.1 5.88e-01 5.87e-01h  1
  47 -2.7606172e-02 5.08e-09 8.73e-03  -8.6 8.99e+00  -8.5 3.40e-01 3.40e-01h  1
  48 -2.7615435e-02 5.08e-09 8.72e-03  -8.6 3.30e+01  -9.0 5.06e-02 5.06e-02f  1
  49 -2.7646689e-02 5.08e-09 3.60e-03  -8.6 9.22e+00  -8.6 3.03e-01 3.03e-01h  1
iter    objective    inf_pr   inf_du lg(mu)  ||d||  lg(rg) alpha_du alpha_pr  ls
  50 -2.7662525e-02 5.08e-09 1.60e-03  -8.6 3.39e+00  -8.2 2.66e-01 2.66e-01h  1
  51 -2.7674185e-02 5.08e-09 3.54e-03  -8.6 1.01e+01  -8.7 2.08e-01 2.08e-01f  1
  52 -2.7681545e-02 5.08e-09 3.35e-03  -8.6 3.05e+01  -9.1 9.82e-02 9.82e-02h  1
  53 -2.7694731e-02 5.08e-09 2.86e-03  -8.6 1.13e+01  -8.7 2.98e-01 2.98e-01f  1
  54 -2.7703909e-02 5.08e-09 4.87e-03  -8.6 3.36e+01  -9.2 1.37e-01 1.36e-01h  1
  55 -2.7711120e-02 5.08e-09 4.31e-03  -8.6 1.01e+02  -9.7 4.66e-02 4.66e-02h  1
  56 -2.7718444e-02 5.08e-09 4.18e-03  -8.6 2.82e+02 -10.1 1.76e-02 1.76e-02f  1
  57 -2.7723144e-02 5.08e-09 4.22e-03  -8.6 1.20e+02  -9.7 2.72e-02 2.72e-02f  1
  58 -2.7730066e-02 5.08e-09 2.21e-03  -8.6 4.27e+01  -9.3 9.94e-02 9.94e-02h  1
  59 -2.7731036e-02 5.08e-09 2.22e-03  -8.6 5.85e+02  -9.8 3.19e-03 3.19e-03f  1
iter    objective    inf_pr   inf_du lg(mu)  ||d||  lg(rg) alpha_du alpha_pr  ls
  60 -2.7732043e-02 5.08e-09 2.30e-03  -8.6 5.71e+01  -9.3 1.28e-02 1.28e-02f  1
  61 -2.7732898e-02 5.08e-09 2.29e-03  -8.6 1.75e+02  -9.8 4.00e-03 4.00e-03f  1
  62 -2.7734766e-02 5.08e-09 3.34e-03  -8.6 5.47e+01  -9.4 2.27e-02 2.27e-02f  1
  63 -2.7741702e-02 5.08e-09 4.94e-03  -8.6 1.61e+02  -9.9 3.10e-02 3.09e-02f  1
  64 -2.7745226e-02 5.08e-09 6.37e-04  -8.6 6.36e+01  -9.4 3.85e-02 3.86e-02f  1
  65 -2.7749388e-02 5.08e-09 5.59e-04  -8.6 1.89e+02  -9.9 1.67e-02 1.67e-02h  1
  66 -2.7753900e-02 5.08e-09 5.64e-04  -8.6 5.38e+02 -10.4 6.28e-03 6.28e-03f  1
  67 -2.7753900e-02 5.08e-09 1.08e-03  -8.6 3.70e+02  -9.1 2.53e-08 2.53e-08h  1
  68 -2.7754094e-02 5.08e-09 1.07e-03  -8.6 7.73e+02  -9.5 2.13e-03 2.13e-03f  1
  69 -2.7754095e-02 5.08e-09 1.07e-03  -8.6 1.19e+02 -10.0 6.64e-06 3.33e-06f  2
iter    objective    inf_pr   inf_du lg(mu)  ||d||  lg(rg) alpha_du alpha_pr  ls
  70 -2.7754082e-02 5.08e-09 2.31e+00  -8.6 1.28e+02  -5.1 3.25e-02 5.11e-04f  7
  71 -2.7755907e-02 5.08e-09 5.92e+01  -8.6 2.48e-02  -5.6 1.00e+00 1.76e-01h  1
  72 -2.7757055e-02 5.08e-09 5.30e+01  -8.6 2.98e-01  -6.0 4.15e-01 1.59e-01f  1
  73 -2.7760385e-02 5.08e-09 3.35e+01  -8.6 6.14e-02  -6.5 1.00e+00 5.34e-01f  1
  74 -2.7763471e-02 5.08e-09 2.14e-08  -8.6 2.06e-01  -7.0 1.00e+00 1.00e+00f  1

Number of Iterations....: 74

                                   (scaled)                 (unscaled)
Objective...............:  -2.7763470918360917e-02   -2.7763470918360917e-02
Dual infeasibility......:   2.1418028666092654e-08    2.1418028666092654e-08
Constraint violation....:   5.0802781028654868e-09    5.0802781028654868e-09
Complementarity.........:   3.4731242425595296e-09    3.4731242425595296e-09
Overall NLP error.......:   5.0802781028654868e-09    2.1418028666092654e-08


Number of objective function evaluations             = 91
Number of objective gradient evaluations             = 75
Number of equality constraint evaluations            = 91
Number of inequality constraint evaluations          = 0
Number of equality constraint Jacobian evaluations   = 75
Number of inequality constraint Jacobian evaluations = 0
Number of Lagrangian Hessian evaluations             = 74
Total CPU secs in IPOPT (w/o function evaluations)   =     48.215
Total CPU secs in NLP function evaluations           =      4.472

EXIT: Optimal Solution Found.

************************ CUTEst statistics ************************


 Package used            :  IPOPT
 Problem                 :  A2NNDNSL  
 # variables             =           60012
 # constraints           =           20004
 # objective functions   =        0.1670000E+03
 # objective gradients   =        0.7600000E+02
 # objective Hessians    =        0.7500000E+02
 # Hessian-vector prdct  =        0.0000000E+00
 # constraints functions =        0.1680000E+03
 # constraints gradients =        0.7700000E+02
 # constraints Hessians  =        0.7500000E+02
 Exit code               =               0
 Final f                 =       -2.7763470918360917D-02
 Bounds feasibility      =        9.9999995021184824D-09
 Set up time             =            0.78 seconds
 Solve time              =          102.61 seconds


******************************************************************

